p cnf 512 2273
-1 -2 0
-1 5 0
-1 4 0
-1 -3 0
-1 6 0
-7 -2 0
-7 5 0
-7 -4 0
-7 3 0
-7 8 0
-9 -2 0
-9 5 0
-9 -4 0
-9 -3 0
-9 10 0
-11 -2 0
-11 -5 0
-11 4 0
-11 3 0
-11 12 0
-13 -2 0
-13 -5 0
-13 4 0
-13 -3 0
-13 14 0
-15 -2 0
-15 -5 0
-15 -4 0
-15 3 0
-15 16 0
-17 -2 0
-17 -5 0
-17 -4 0
-17 -3 0
-17 18 0
8 -19 0
8 -6 0
19 6 -8 0
10 -20 0
10 -19 0
10 -6 0
20 19 6 -10 0
12 -21 0
12 -20 0
12 -19 0
12 -6 0
21 20 19 6 -12 0
14 -22 0
14 -21 0
14 -20 0
14 -19 0
14 -6 0
22 21 20 19 6 -14 0
16 -23 0
16 -22 0
16 -21 0
16 -20 0
16 -19 0
16 -6 0
23 22 21 20 19 6 -16 0
18 -24 0
18 -23 0
18 -22 0
18 -21 0
18 -20 0
18 -19 0
18 -6 0
24 23 22 21 20 19 6 -18 0
25 -26 0
25 -24 0
25 -23 0
25 -22 0
25 -21 0
25 -20 0
25 -19 0
25 -6 0
26 24 23 22 21 20 19 6 -25 0
-27 2 0
-27 25 0
28 29 3 0
28 -29 -3 0
-28 29 -3 0
-28 -29 3 0
32 33 28 0
32 -33 -28 0
-32 33 -28 0
-32 -33 28 0
36 30 4 0
36 -30 -4 0
-36 30 -4 0
-36 -30 4 0
37 36 38 0
37 -36 -38 0
-37 36 -38 0
-37 -36 38 0
39 34 37 0
39 -34 -37 0
-39 34 -37 0
-39 -34 37 0
40 30 0
40 4 0
-30 -4 -40 0
41 30 0
41 29 0
41 3 0
-30 -29 -3 -41 0
38 29 0
38 3 0
-29 -3 -38 0
42 29 0
42 3 0
42 4 0
-29 -3 -4 -42 0
-42 -41 -40 43 0
-43 42 0
-43 41 0
-43 40 0
44 31 5 0
44 -31 -5 0
-44 31 -5 0
-44 -31 5 0
45 44 43 0
45 -44 -43 0
-45 44 -43 0
-45 -44 43 0
46 35 45 0
46 -35 -45 0
-46 35 -45 0
-46 -35 45 0
47 29 -33 0
47 -29 33 0
-47 29 33 0
-47 -29 -33 0
48 30 -34 0
48 -30 34 0
-48 30 34 0
-48 -30 -34 0
49 31 -35 0
49 -31 35 0
-49 31 35 0
-49 -31 -35 0
50 -49 0
50 -48 0
50 -47 0
49 48 47 -50 0
-51 52 0
-51 50 0
53 -5 0
53 -4 0
53 -3 0
5 4 3 -53 0
-54 2 0
-54 53 0
55 2 -52 0
55 -2 52 0
-55 2 52 0
-55 -2 -52 0
56 -33 -29 0
56 33 29 0
-56 -33 29 0
-56 33 -29 0
57 34 -33 0
57 -34 33 0
-57 34 33 0
-57 -34 -33 0
58 57 -30 0
58 -57 30 0
-58 57 30 0
-58 -57 -30 0
59 35 60 0
59 -35 -60 0
-59 35 -60 0
-59 -35 60 0
61 59 -31 0
61 -59 31 0
-61 59 31 0
-61 -59 -31 0
62 -61 0
62 -58 0
62 -56 0
61 58 56 -62 0
60 34 0
60 33 0
-34 -33 -60 0
63 35 0
63 34 0
63 33 0
-35 -34 -33 -63 0
-63 -62 64 0
-64 63 0
-64 62 0
65 -31 0
65 -30 0
65 -29 0
31 30 29 -65 0
-35 -34 -33 -65 66 0
-66 35 0
-66 34 0
-66 33 0
-66 65 0
67 -66 0
67 -64 0
66 64 -67 0
-5 -4 -3 68 0
-68 5 0
-68 4 0
-68 3 0
69 68 67 0
69 -68 -67 0
-69 68 -67 0
-69 -68 67 0
-31 -30 -29 70 71 0
-71 31 0
-71 30 0
-71 29 0
-71 -70 0
-31 -30 29 72 73 0
-73 31 0
-73 30 0
-73 -29 0
-73 -72 0
-31 30 -29 74 75 0
-75 31 0
-75 -30 0
-75 29 0
-75 -74 0
-31 30 29 76 77 0
-77 31 0
-77 -30 0
-77 -29 0
-77 -76 0
31 -30 -29 78 79 0
-79 -31 0
-79 30 0
-79 29 0
-79 -78 0
31 -30 29 80 81 0
-81 -31 0
-81 30 0
-81 -29 0
-81 -80 0
31 30 -29 82 83 0
-83 -31 0
-83 -30 0
-83 29 0
-83 -82 0
31 30 29 84 85 0
-85 -31 0
-85 -30 0
-85 -29 0
-85 -84 0
86 -85 0
86 -83 0
86 -81 0
86 -79 0
86 -77 0
86 -75 0
86 -73 0
86 -71 0
85 83 81 79 77 75 73 71 -86 0
87 6 86 0
87 -6 -86 0
-87 6 -86 0
-87 -6 86 0
-31 -30 -29 72 88 0
-88 31 0
-88 30 0
-88 29 0
-88 -72 0
-31 -30 29 74 89 0
-89 31 0
-89 30 0
-89 -29 0
-89 -74 0
-31 30 -29 76 90 0
-90 31 0
-90 -30 0
-90 29 0
-90 -76 0
-31 30 29 78 91 0
-91 31 0
-91 -30 0
-91 -29 0
-91 -78 0
31 -30 -29 80 92 0
-92 -31 0
-92 30 0
-92 29 0
-92 -80 0
31 -30 29 82 93 0
-93 -31 0
-93 30 0
-93 -29 0
-93 -82 0
31 30 -29 84 94 0
-94 -31 0
-94 -30 0
-94 29 0
-94 -84 0
31 30 29 70 95 0
-95 -31 0
-95 -30 0
-95 -29 0
-95 -70 0
96 -95 0
96 -94 0
96 -93 0
96 -92 0
96 -91 0
96 -90 0
96 -89 0
96 -88 0
95 94 93 92 91 90 89 88 -96 0
97 19 96 0
97 -19 -96 0
-97 19 -96 0
-97 -19 96 0
-31 -30 -29 74 98 0
-98 31 0
-98 30 0
-98 29 0
-98 -74 0
-31 -30 29 76 99 0
-99 31 0
-99 30 0
-99 -29 0
-99 -76 0
-31 30 -29 78 100 0
-100 31 0
-100 -30 0
-100 29 0
-100 -78 0
-31 30 29 80 101 0
-101 31 0
-101 -30 0
-101 -29 0
-101 -80 0
31 -30 -29 82 102 0
-102 -31 0
-102 30 0
-102 29 0
-102 -82 0
31 -30 29 84 103 0
-103 -31 0
-103 30 0
-103 -29 0
-103 -84 0
31 30 -29 70 104 0
-104 -31 0
-104 -30 0
-104 29 0
-104 -70 0
31 30 29 72 105 0
-105 -31 0
-105 -30 0
-105 -29 0
-105 -72 0
106 -105 0
106 -104 0
106 -103 0
106 -102 0
106 -101 0
106 -100 0
106 -99 0
106 -98 0
105 104 103 102 101 100 99 98 -106 0
107 20 106 0
107 -20 -106 0
-107 20 -106 0
-107 -20 106 0
-31 -30 -29 76 108 0
-108 31 0
-108 30 0
-108 29 0
-108 -76 0
-31 -30 29 78 109 0
-109 31 0
-109 30 0
-109 -29 0
-109 -78 0
-31 30 -29 80 110 0
-110 31 0
-110 -30 0
-110 29 0
-110 -80 0
-31 30 29 82 111 0
-111 31 0
-111 -30 0
-111 -29 0
-111 -82 0
31 -30 -29 84 112 0
-112 -31 0
-112 30 0
-112 29 0
-112 -84 0
31 -30 29 70 113 0
-113 -31 0
-113 30 0
-113 -29 0
-113 -70 0
31 30 -29 72 114 0
-114 -31 0
-114 -30 0
-114 29 0
-114 -72 0
31 30 29 74 115 0
-115 -31 0
-115 -30 0
-115 -29 0
-115 -74 0
116 -115 0
116 -114 0
116 -113 0
116 -112 0
116 -111 0
116 -110 0
116 -109 0
116 -108 0
115 114 113 112 111 110 109 108 -116 0
117 21 116 0
117 -21 -116 0
-117 21 -116 0
-117 -21 116 0
-31 -30 -29 78 118 0
-118 31 0
-118 30 0
-118 29 0
-118 -78 0
-31 -30 29 80 119 0
-119 31 0
-119 30 0
-119 -29 0
-119 -80 0
-31 30 -29 82 120 0
-120 31 0
-120 -30 0
-120 29 0
-120 -82 0
-31 30 29 84 121 0
-121 31 0
-121 -30 0
-121 -29 0
-121 -84 0
31 -30 -29 70 122 0
-122 -31 0
-122 30 0
-122 29 0
-122 -70 0
31 -30 29 72 123 0
-123 -31 0
-123 30 0
-123 -29 0
-123 -72 0
31 30 -29 74 124 0
-124 -31 0
-124 -30 0
-124 29 0
-124 -74 0
31 30 29 76 125 0
-125 -31 0
-125 -30 0
-125 -29 0
-125 -76 0
126 -125 0
126 -124 0
126 -123 0
126 -122 0
126 -121 0
126 -120 0
126 -119 0
126 -118 0
125 124 123 122 121 120 119 118 -126 0
127 22 126 0
127 -22 -126 0
-127 22 -126 0
-127 -22 126 0
-31 -30 -29 80 128 0
-128 31 0
-128 30 0
-128 29 0
-128 -80 0
-31 -30 29 82 129 0
-129 31 0
-129 30 0
-129 -29 0
-129 -82 0
-31 30 -29 84 130 0
-130 31 0
-130 -30 0
-130 29 0
-130 -84 0
-31 30 29 70 131 0
-131 31 0
-131 -30 0
-131 -29 0
-131 -70 0
31 -30 -29 72 132 0
-132 -31 0
-132 30 0
-132 29 0
-132 -72 0
31 -30 29 74 133 0
-133 -31 0
-133 30 0
-133 -29 0
-133 -74 0
31 30 -29 76 134 0
-134 -31 0
-134 -30 0
-134 29 0
-134 -76 0
31 30 29 78 135 0
-135 -31 0
-135 -30 0
-135 -29 0
-135 -78 0
136 -135 0
136 -134 0
136 -133 0
136 -132 0
136 -131 0
136 -130 0
136 -129 0
136 -128 0
135 134 133 132 131 130 129 128 -136 0
137 23 136 0
137 -23 -136 0
-137 23 -136 0
-137 -23 136 0
-31 -30 -29 82 138 0
-138 31 0
-138 30 0
-138 29 0
-138 -82 0
-31 -30 29 84 139 0
-139 31 0
-139 30 0
-139 -29 0
-139 -84 0
-31 30 -29 70 140 0
-140 31 0
-140 -30 0
-140 29 0
-140 -70 0
-31 30 29 72 141 0
-141 31 0
-141 -30 0
-141 -29 0
-141 -72 0
31 -30 -29 74 142 0
-142 -31 0
-142 30 0
-142 29 0
-142 -74 0
31 -30 29 76 143 0
-143 -31 0
-143 30 0
-143 -29 0
-143 -76 0
31 30 -29 78 144 0
-144 -31 0
-144 -30 0
-144 29 0
-144 -78 0
31 30 29 80 145 0
-145 -31 0
-145 -30 0
-145 -29 0
-145 -80 0
146 -145 0
146 -144 0
146 -143 0
146 -142 0
146 -141 0
146 -140 0
146 -139 0
146 -138 0
145 144 143 142 141 140 139 138 -146 0
147 24 146 0
147 -24 -146 0
-147 24 -146 0
-147 -24 146 0
148 -147 0
148 -137 0
148 -127 0
148 -117 0
148 -107 0
148 -97 0
148 -87 0
148 -69 0
148 -55 0
148 -54 0
148 -51 0
148 -46 0
148 -39 0
148 -32 0
148 -27 0
148 -17 0
148 -15 0
148 -13 0
148 -11 0
148 -9 0
148 -7 0
148 -1 0
147 137 127 117 107 97 87 69 55 54 51 46 39 32 27 17 15 13 11 9 7 1 -148 0
-31 -30 -29 84 149 0
-149 31 0
-149 30 0
-149 29 0
-149 -84 0
-31 -30 29 70 150 0
-150 31 0
-150 30 0
-150 -29 0
-150 -70 0
-31 30 -29 72 151 0
-151 31 0
-151 -30 0
-151 29 0
-151 -72 0
-31 30 29 74 152 0
-152 31 0
-152 -30 0
-152 -29 0
-152 -74 0
31 -30 -29 76 153 0
-153 -31 0
-153 30 0
-153 29 0
-153 -76 0
31 -30 29 78 154 0
-154 -31 0
-154 30 0
-154 -29 0
-154 -78 0
31 30 -29 80 155 0
-155 -31 0
-155 -30 0
-155 29 0
-155 -80 0
31 30 29 82 156 0
-156 -31 0
-156 -30 0
-156 -29 0
-156 -82 0
157 -156 0
157 -155 0
157 -154 0
157 -153 0
157 -152 0
157 -151 0
157 -150 0
157 -149 0
156 155 154 153 152 151 150 149 -157 0
158 26 157 0
158 -26 -157 0
-158 26 -157 0
-158 -26 157 0
-159 -162 -161 -160 163 0
-163 159 0
-163 162 0
-163 161 0
-163 160 0
164 -165 0
164 -163 0
164 -166 0
165 163 166 -164 0
167 -170 -169 168 171 0
-171 -167 0
-171 170 0
-171 169 0
-171 -168 0
-167 -170 -169 -168 172 0
-172 167 0
-172 170 0
-172 169 0
-172 168 0
173 -172 0
173 -171 0
172 171 -173 0
-174 -175 -176 -173 165 0
-165 174 0
-165 175 0
-165 176 0
-165 173 0
177 -165 0
177 -178 0
177 162 0
177 161 0
177 160 0
165 178 -162 -161 -160 -177 0
179 -167 0
179 170 0
179 169 0
179 -168 0
167 -170 -169 168 -179 0
180 167 0
180 170 0
180 169 0
180 168 0
-167 -170 -169 -168 -180 0
-180 -179 181 0
-181 180 0
-181 179 0
182 -183 0
182 -184 0
182 -185 0
182 -181 0
182 -186 0
183 184 185 181 186 -182 0
-182 -177 -164 187 0
-187 182 0
-187 177 0
-187 164 0
-159 -162 -161 160 188 0
-188 159 0
-188 162 0
-188 161 0
-188 -160 0
189 -190 0
189 -188 0
189 -191 0
190 188 191 -189 0
167 -170 169 -168 192 0
-192 -167 0
-192 170 0
-192 -169 0
-192 168 0
-167 -170 -169 168 193 0
-193 167 0
-193 170 0
-193 169 0
-193 -168 0
194 -193 0
194 -192 0
193 192 -194 0
-174 -175 -176 -194 190 0
-190 174 0
-190 175 0
-190 176 0
-190 194 0
195 -190 0
195 -178 0
195 162 0
195 161 0
195 -160 0
190 178 -162 -161 160 -195 0
196 -167 0
196 170 0
196 -169 0
196 168 0
167 -170 169 -168 -196 0
197 167 0
197 170 0
197 169 0
197 -168 0
-167 -170 -169 168 -197 0
-197 -196 198 0
-198 197 0
-198 196 0
199 -183 0
199 -184 0
199 -185 0
199 -198 0
199 -186 0
183 184 185 198 186 -199 0
-199 -195 -189 200 0
-200 199 0
-200 195 0
-200 189 0
-159 -162 161 -160 201 0
-201 159 0
-201 162 0
-201 -161 0
-201 160 0
202 -203 0
202 -201 0
202 -204 0
203 201 204 -202 0
167 -170 169 168 205 0
-205 -167 0
-205 170 0
-205 -169 0
-205 -168 0
-167 -170 169 -168 206 0
-206 167 0
-206 170 0
-206 -169 0
-206 168 0
207 -206 0
207 -205 0
206 205 -207 0
-174 -175 -176 -207 203 0
-203 174 0
-203 175 0
-203 176 0
-203 207 0
208 -203 0
208 -178 0
208 162 0
208 -161 0
208 160 0
203 178 -162 161 -160 -208 0
209 -167 0
209 170 0
209 -169 0
209 -168 0
167 -170 169 168 -209 0
210 167 0
210 170 0
210 -169 0
210 168 0
-167 -170 169 -168 -210 0
-210 -209 211 0
-211 210 0
-211 209 0
212 -183 0
212 -184 0
212 -185 0
212 -211 0
212 -186 0
183 184 185 211 186 -212 0
-212 -208 -202 213 0
-213 212 0
-213 208 0
-213 202 0
-159 -162 161 160 214 0
-214 159 0
-214 162 0
-214 -161 0
-214 -160 0
215 -216 0
215 -214 0
215 -217 0
216 214 217 -215 0
167 170 -169 -168 218 0
-218 -167 0
-218 -170 0
-218 169 0
-218 168 0
-167 -170 169 168 219 0
-219 167 0
-219 170 0
-219 -169 0
-219 -168 0
220 -219 0
220 -218 0
219 218 -220 0
-174 -175 -176 -220 216 0
-216 174 0
-216 175 0
-216 176 0
-216 220 0
221 -216 0
221 -178 0
221 162 0
221 -161 0
221 -160 0
216 178 -162 161 160 -221 0
222 -167 0
222 -170 0
222 169 0
222 168 0
167 170 -169 -168 -222 0
223 167 0
223 170 0
223 -169 0
223 -168 0
-167 -170 169 168 -223 0
-223 -222 224 0
-224 223 0
-224 222 0
225 -183 0
225 -184 0
225 -185 0
225 -224 0
225 -186 0
183 184 185 224 186 -225 0
-225 -221 -215 226 0
-226 225 0
-226 221 0
-226 215 0
-159 162 -161 -160 227 0
-227 159 0
-227 -162 0
-227 161 0
-227 160 0
228 -229 0
228 -227 0
228 -230 0
229 227 230 -228 0
167 170 -169 168 231 0
-231 -167 0
-231 -170 0
-231 169 0
-231 -168 0
-167 170 -169 -168 232 0
-232 167 0
-232 -170 0
-232 169 0
-232 168 0
233 -232 0
233 -231 0
232 231 -233 0
-174 -175 -176 -233 229 0
-229 174 0
-229 175 0
-229 176 0
-229 233 0
234 -229 0
234 -178 0
234 -162 0
234 161 0
234 160 0
229 178 162 -161 -160 -234 0
235 -167 0
235 -170 0
235 169 0
235 -168 0
167 170 -169 168 -235 0
236 167 0
236 -170 0
236 169 0
236 168 0
-167 170 -169 -168 -236 0
-236 -235 237 0
-237 236 0
-237 235 0
238 -183 0
238 -184 0
238 -185 0
238 -237 0
238 -186 0
183 184 185 237 186 -238 0
-238 -234 -228 239 0
-239 238 0
-239 234 0
-239 228 0
-159 162 -161 160 240 0
-240 159 0
-240 -162 0
-240 161 0
-240 -160 0
241 -242 0
241 -240 0
241 -243 0
242 240 243 -241 0
167 170 169 -168 244 0
-244 -167 0
-244 -170 0
-244 -169 0
-244 168 0
-167 170 -169 168 245 0
-245 167 0
-245 -170 0
-245 169 0
-245 -168 0
246 -245 0
246 -244 0
245 244 -246 0
-174 -175 -176 -246 242 0
-242 174 0
-242 175 0
-242 176 0
-242 246 0
247 -242 0
247 -178 0
247 -162 0
247 161 0
247 -160 0
242 178 162 -161 160 -247 0
248 -167 0
248 -170 0
248 -169 0
248 168 0
167 170 169 -168 -248 0
249 167 0
249 -170 0
249 169 0
249 -168 0
-167 170 -169 168 -249 0
-249 -248 250 0
-250 249 0
-250 248 0
251 -183 0
251 -184 0
251 -185 0
251 -250 0
251 -186 0
183 184 185 250 186 -251 0
-251 -247 -241 252 0
-252 251 0
-252 247 0
-252 241 0
-159 162 161 -160 253 0
-253 159 0
-253 -162 0
-253 -161 0
-253 160 0
254 -255 0
254 -253 0
254 -256 0
255 253 256 -254 0
167 170 169 168 257 0
-257 -167 0
-257 -170 0
-257 -169 0
-257 -168 0
-167 170 169 -168 258 0
-258 167 0
-258 -170 0
-258 -169 0
-258 168 0
259 -258 0
259 -257 0
258 257 -259 0
-174 -175 -176 -259 255 0
-255 174 0
-255 175 0
-255 176 0
-255 259 0
260 -255 0
260 -178 0
260 -162 0
260 -161 0
260 160 0
255 178 162 161 -160 -260 0
261 -167 0
261 -170 0
261 -169 0
261 -168 0
167 170 169 168 -261 0
262 167 0
262 -170 0
262 -169 0
262 168 0
-167 170 169 -168 -262 0
-262 -261 263 0
-263 262 0
-263 261 0
264 -183 0
264 -184 0
264 -185 0
264 -263 0
264 -186 0
183 184 185 263 186 -264 0
-264 -260 -254 265 0
-265 264 0
-265 260 0
-265 254 0
-159 162 161 160 266 0
-266 159 0
-266 -162 0
-266 -161 0
-266 -160 0
267 -268 0
267 -266 0
267 -269 0
268 266 269 -267 0
167 -170 -169 -168 270 0
-270 -167 0
-270 170 0
-270 169 0
-270 168 0
-167 170 169 168 271 0
-271 167 0
-271 -170 0
-271 -169 0
-271 -168 0
272 -271 0
272 -270 0
271 270 -272 0
-174 -175 -176 -272 268 0
-268 174 0
-268 175 0
-268 176 0
-268 272 0
273 -268 0
273 -178 0
273 -162 0
273 -161 0
273 -160 0
268 178 162 161 160 -273 0
274 -167 0
274 170 0
274 169 0
274 168 0
167 -170 -169 -168 -274 0
275 167 0
275 -170 0
275 -169 0
275 -168 0
-167 170 169 168 -275 0
-275 -274 276 0
-276 275 0
-276 274 0
277 -183 0
277 -184 0
277 -185 0
277 -276 0
277 -186 0
183 184 185 276 186 -277 0
-277 -273 -267 278 0
-278 277 0
-278 273 0
-278 267 0
279 -280 0
279 -170 0
280 170 -279 0
281 -282 0
281 -283 0
282 283 -281 0
-284 -281 285 0
-285 284 0
-285 281 0
286 -167 0
286 -183 0
286 -184 0
286 -185 0
286 -285 0
167 183 184 185 285 -286 0
-286 -279 287 0
-287 286 0
-287 279 0
288 -280 0
288 -169 0
280 169 -288 0
289 -282 0
289 -290 0
282 290 -289 0
-284 -289 291 0
-291 284 0
-291 289 0
292 -167 0
292 -183 0
292 -184 0
292 -185 0
292 -291 0
167 183 184 185 291 -292 0
-292 -288 293 0
-293 292 0
-293 288 0
167 -174 -175 -176 280 0
-280 -167 0
-280 174 0
-280 175 0
-280 176 0
294 -280 0
294 -168 0
280 168 -294 0
295 -282 0
295 168 0
282 -168 -295 0
-284 -295 296 0
-296 284 0
-296 295 0
297 -167 0
297 -183 0
297 -184 0
297 -185 0
297 -296 0
167 183 184 185 296 -297 0
-297 -294 298 0
-298 297 0
-298 294 0
299 -300 0
299 -162 0
300 162 -299 0
301 162 302 0
301 -162 -302 0
-301 162 -302 0
-301 -162 302 0
303 -304 0
303 -301 0
304 301 -303 0
-305 -303 306 0
-306 305 0
-306 303 0
307 -308 0
307 -178 0
307 -306 0
308 178 306 -307 0
-307 -299 309 0
-309 307 0
-309 299 0
310 -300 0
310 -161 0
300 161 -310 0
311 161 -160 0
311 -161 160 0
-311 161 160 0
-311 -161 -160 0
312 -304 0
312 -311 0
304 311 -312 0
-305 -312 313 0
-313 305 0
-313 312 0
314 -308 0
314 -178 0
314 -313 0
308 178 313 -314 0
-314 -310 315 0
-315 314 0
-315 310 0
316 160 -168 0
316 -160 168 0
-316 160 168 0
-316 -160 -168 0
317 161 -169 0
317 -161 169 0
-317 161 169 0
-317 -161 -169 0
318 162 -170 0
318 -162 170 0
-318 162 170 0
-318 -162 -170 0
319 -318 0
319 -317 0
319 -316 0
318 317 316 -319 0
-319 -159 300 0
-300 319 0
-300 159 0
320 -300 0
320 -160 0
300 160 -320 0
-162 -161 -160 304 0
-304 162 0
-304 161 0
-304 160 0
321 -304 0
321 160 0
304 -160 -321 0
-305 -321 322 0
-322 305 0
-322 321 0
323 -308 0
323 -178 0
323 -322 0
308 178 322 -323 0
-323 -320 324 0
-324 323 0
-324 320 0
325 -178 0
325 -308 0
178 308 -325 0
-159 -325 326 0
-326 159 0
-326 325 0
-329 -328 327 330 0
-330 329 0
-330 328 0
-330 -327 0
331 -183 0
331 -184 0
331 -185 0
331 -330 0
331 -332 0
183 184 185 330 332 -331 0
333 -183 0
333 -184 0
333 -185 0
333 329 0
333 328 0
333 -327 0
333 -186 0
183 184 185 -329 -328 327 186 -333 0
-174 -175 -176 -333 -331 334 0
-334 174 0
-334 175 0
-334 176 0
-334 333 0
-334 331 0
-329 328 -327 335 0
-335 329 0
-335 -328 0
-335 327 0
336 -183 0
336 -184 0
336 -185 0
336 -335 0
336 -337 0
183 184 185 335 337 -336 0
338 -183 0
338 -184 0
338 -185 0
338 329 0
338 -328 0
338 327 0
338 -186 0
183 184 185 -329 328 -327 186 -338 0
339 -178 0
339 -332 0
178 332 -339 0
-339 -338 -336 340 0
-340 339 0
-340 338 0
-340 336 0
-329 328 327 341 0
-341 329 0
-341 -328 0
-341 -327 0
342 -183 0
342 -184 0
342 -185 0
342 -341 0
342 -343 0
183 184 185 341 343 -342 0
344 -183 0
344 -184 0
344 -185 0
344 329 0
344 -328 0
344 -327 0
344 -186 0
183 184 185 -329 328 327 186 -344 0
345 -178 0
345 -337 0
178 337 -345 0
-345 -344 -342 346 0
-346 345 0
-346 344 0
-346 342 0
329 -328 -327 347 0
-347 -329 0
-347 328 0
-347 327 0
348 -183 0
348 -184 0
348 -185 0
348 -347 0
348 -349 0
183 184 185 347 349 -348 0
350 -183 0
350 -184 0
350 -185 0
350 -329 0
350 328 0
350 327 0
350 -186 0
183 184 185 329 -328 -327 186 -350 0
351 -178 0
351 -343 0
178 343 -351 0
-351 -350 -348 352 0
-352 351 0
-352 350 0
-352 348 0
329 -328 327 353 0
-353 -329 0
-353 328 0
-353 -327 0
354 -183 0
354 -184 0
354 -185 0
354 -353 0
354 -355 0
183 184 185 353 355 -354 0
356 -183 0
356 -184 0
356 -185 0
356 -329 0
356 328 0
356 -327 0
356 -186 0
183 184 185 329 -328 327 186 -356 0
357 -178 0
357 -349 0
178 349 -357 0
-357 -356 -354 358 0
-358 357 0
-358 356 0
-358 354 0
329 328 -327 359 0
-359 -329 0
-359 -328 0
-359 327 0
360 -183 0
360 -184 0
360 -185 0
360 -359 0
360 -361 0
183 184 185 359 361 -360 0
362 -183 0
362 -184 0
362 -185 0
362 -329 0
362 -328 0
362 327 0
362 -186 0
183 184 185 329 328 -327 186 -362 0
363 -178 0
363 -355 0
178 355 -363 0
-363 -362 -360 364 0
-364 363 0
-364 362 0
-364 360 0
365 329 328 327 366 0
-366 -365 0
-366 -329 0
-366 -328 0
-366 -327 0
367 -183 0
367 -184 0
367 -185 0
367 -366 0
367 -368 0
183 184 185 366 368 -367 0
369 -183 0
369 -184 0
369 -185 0
369 -365 0
369 -329 0
369 -328 0
369 -327 0
369 -186 0
183 184 185 365 329 328 327 186 -369 0
370 -178 0
370 -361 0
178 361 -370 0
-370 -369 -367 371 0
-371 370 0
-371 369 0
-371 367 0
372 -183 0
372 -184 0
372 -185 0
372 -365 0
372 -373 0
183 184 185 365 373 -372 0
374 -183 0
374 -184 0
374 -185 0
374 365 0
374 -186 0
183 184 185 -365 186 -374 0
375 -178 0
375 -368 0
178 368 -375 0
-375 -374 -372 376 0
-376 375 0
-376 374 0
-376 372 0
377 329 378 0
377 -329 -378 0
-377 329 -378 0
-377 -329 378 0
379 -380 0
379 -381 0
379 -183 0
379 -184 0
379 -185 0
379 -365 0
379 -377 0
380 381 183 184 185 365 377 -379 0
382 329 383 0
382 -329 -383 0
-382 329 -383 0
-382 -329 383 0
384 -380 0
384 -381 0
384 -178 0
384 -382 0
380 381 178 382 -384 0
-385 -384 -386 -379 387 0
-387 385 0
-387 384 0
-387 386 0
-387 379 0
388 328 -327 0
388 -328 327 0
-388 328 327 0
-388 -328 -327 0
389 -380 0
389 -381 0
389 -183 0
389 -184 0
389 -185 0
389 -365 0
389 -388 0
380 381 183 184 185 365 388 -389 0
390 328 327 0
390 -328 -327 0
-390 328 -327 0
-390 -328 327 0
391 -380 0
391 -381 0
391 -178 0
391 -390 0
380 381 178 390 -391 0
-385 -391 -386 -389 392 0
-392 385 0
-392 391 0
-392 386 0
-392 389 0
393 -380 0
393 -381 0
393 -183 0
393 -184 0
393 -185 0
393 -365 0
393 327 0
380 381 183 184 185 365 -327 -393 0
386 -380 0
386 -381 0
386 -183 0
386 -184 0
386 -185 0
386 365 0
380 381 183 184 185 -365 -386 0
-174 -175 -176 -329 -328 -327 381 0
-381 174 0
-381 175 0
-381 176 0
-381 329 0
-381 328 0
-381 327 0
394 -380 0
394 -381 0
394 -178 0
394 327 0
380 381 178 -327 -394 0
385 -178 0
385 -329 0
385 -328 0
385 -327 0
178 329 328 327 -385 0
-385 -394 -386 -393 395 0
-395 385 0
-395 394 0
-395 386 0
-395 393 0
-159 329 328 327 380 0
-380 159 0
-380 -329 0
-380 -328 0
-380 -327 0
176 -183 0
176 -184 0
176 -365 0
176 -167 0
176 -396 0
183 184 365 167 396 -176 0
-174 -175 -176 178 0
-178 174 0
-178 175 0
-178 176 0
397 -178 0
397 -380 0
397 -365 0
178 380 365 -397 0
398 -168 -160 0
398 168 160 0
-398 -168 160 0
-398 168 -160 0
399 290 -161 0
399 -290 161 0
-399 290 161 0
-399 -290 -161 0
400 283 -162 0
400 -283 162 0
-400 283 162 0
-400 -283 -162 0
401 -400 0
401 -399 0
401 -398 0
400 399 398 -401 0
-284 -401 402 0
-402 284 0
-402 401 0
-170 -169 -168 -403 404 0
-404 170 0
-404 169 0
-404 168 0
-404 403 0
175 -404 0
175 -402 0
404 402 -175 0
174 329 0
174 328 0
174 327 0
-329 -328 -327 -174 0
-174 -175 365 167 396 185 0
-185 174 0
-185 175 0
-185 -365 0
-185 -167 0
-185 -396 0
159 -183 0
159 -184 0
159 -185 0
183 184 185 -159 0
-159 -397 405 0
-405 159 0
-405 397 0
406 -365 0
406 329 0
406 -328 0
406 327 0
365 -329 328 -327 -406 0
407 -365 0
407 329 0
407 -328 0
407 -327 0
365 -329 328 327 -407 0
378 328 0
378 327 0
-328 -327 -378 0
408 -365 0
408 -329 0
408 328 0
408 327 0
365 329 -328 -327 -408 0
409 -365 0
409 -329 0
409 328 0
409 -327 0
365 329 -328 327 -409 0
410 -365 0
410 -329 0
410 -328 0
410 327 0
365 329 328 -327 -410 0
383 -328 0
383 -327 0
328 327 -383 0
411 -365 0
411 -329 0
411 -328 0
411 -327 0
365 329 328 327 -411 0
-412 -337 0
-412 -332 0
-413 -343 0
-413 -337 0
-413 -332 0
-414 -349 0
-414 -343 0
-414 -337 0
-414 -332 0
-415 -355 0
-415 -349 0
-415 -343 0
-415 -337 0
-415 -332 0
-416 -361 0
-416 -355 0
-416 -349 0
-416 -343 0
-416 -337 0
-416 -332 0
-417 -368 0
-417 -361 0
-417 -355 0
-417 -349 0
-417 -343 0
-417 -337 0
-417 -332 0
-418 -373 0
-418 -368 0
-418 -361 0
-418 -355 0
-418 -349 0
-418 -343 0
-418 -337 0
-418 -332 0
419 160 -327 0
419 -160 327 0
-419 160 327 0
-419 -160 -327 0
420 161 328 0
420 -161 -328 0
-420 161 -328 0
-420 -161 328 0
421 420 422 0
421 -420 -422 0
-421 420 -422 0
-421 -420 422 0
-161 -328 423 0
-423 161 0
-423 328 0
-161 -160 -327 424 0
-424 161 0
-424 160 0
-424 327 0
-160 -327 422 0
-422 160 0
-422 327 0
-160 -327 -328 425 0
-425 160 0
-425 327 0
-425 328 0
426 -425 0
426 -424 0
426 -423 0
425 424 423 -426 0
427 162 329 0
427 -162 -329 0
-427 162 -329 0
-427 -162 329 0
428 427 426 0
428 -427 -426 0
-428 427 -426 0
-428 -427 426 0
429 160 168 0
429 -160 -168 0
-429 160 -168 0
-429 -160 168 0
430 161 169 0
430 -161 -169 0
-430 161 -169 0
-430 -161 169 0
431 162 170 0
431 -162 -170 0
-431 162 -170 0
-431 -162 170 0
-431 -430 -429 308 0
-308 431 0
-308 430 0
-308 429 0
-432 -329 0
-432 -328 0
-432 -327 0
433 -168 160 0
433 168 -160 0
-433 -168 -160 0
-433 168 160 0
290 169 -168 0
290 -169 168 0
-290 169 168 0
-290 -169 -168 0
434 290 161 0
434 -290 -161 0
-434 290 -161 0
-434 -290 161 0
283 170 435 0
283 -170 -435 0
-283 170 -435 0
-283 -170 435 0
436 283 162 0
436 -283 -162 0
-436 283 -162 0
-436 -283 162 0
-436 -434 -433 437 0
-437 436 0
-437 434 0
-437 433 0
-170 -169 -168 282 0
-282 170 0
-282 169 0
-282 168 0
438 -282 0
438 -437 0
282 437 -438 0
162 161 160 439 0
-439 -162 0
-439 -161 0
-439 -160 0
435 169 0
435 168 0
-169 -168 -435 0
284 170 0
284 169 0
284 168 0
-170 -169 -168 -284 0
440 170 0
440 169 0
440 168 0
440 -439 0
-170 -169 -168 439 -440 0
-440 -438 184 0
-184 440 0
-184 438 0
-329 -328 -327 183 0
-183 329 0
-183 328 0
-183 327 0
441 162 0
441 161 0
441 160 0
441 -191 0
-162 -161 -160 191 -441 0
442 162 0
442 161 0
442 -160 0
442 -204 0
-162 -161 160 204 -442 0
443 162 0
443 -161 0
443 160 0
443 -217 0
-162 161 -160 217 -443 0
444 162 0
444 -161 0
444 -160 0
444 -230 0
-162 161 160 230 -444 0
445 -162 0
445 161 0
445 160 0
445 -243 0
162 -161 -160 243 -445 0
446 -162 0
446 161 0
446 -160 0
446 -256 0
162 -161 160 256 -446 0
447 -162 0
447 -161 0
447 160 0
447 -269 0
162 161 -160 269 -447 0
448 -162 0
448 -161 0
448 -160 0
448 -166 0
162 161 160 166 -448 0
-448 -447 -446 -445 -444 -443 -442 -441 449 0
-449 448 0
-449 447 0
-449 446 0
-449 445 0
-449 444 0
-449 443 0
-449 442 0
-449 441 0
450 162 0
450 161 0
450 160 0
450 -204 0
-162 -161 -160 204 -450 0
451 162 0
451 161 0
451 -160 0
451 -217 0
-162 -161 160 217 -451 0
452 162 0
452 -161 0
452 160 0
452 -230 0
-162 161 -160 230 -452 0
453 162 0
453 -161 0
453 -160 0
453 -243 0
-162 161 160 243 -453 0
454 -162 0
454 161 0
454 160 0
454 -256 0
162 -161 -160 256 -454 0
455 -162 0
455 161 0
455 -160 0
455 -269 0
162 -161 160 269 -455 0
456 -162 0
456 -161 0
456 160 0
456 -166 0
162 161 -160 166 -456 0
457 -162 0
457 -161 0
457 -160 0
457 -191 0
162 161 160 191 -457 0
-457 -456 -455 -454 -453 -452 -451 -450 458 0
-458 457 0
-458 456 0
-458 455 0
-458 454 0
-458 453 0
-458 452 0
-458 451 0
-458 450 0
459 162 0
459 161 0
459 160 0
459 -217 0
-162 -161 -160 217 -459 0
460 162 0
460 161 0
460 -160 0
460 -230 0
-162 -161 160 230 -460 0
461 162 0
461 -161 0
461 160 0
461 -243 0
-162 161 -160 243 -461 0
462 162 0
462 -161 0
462 -160 0
462 -256 0
-162 161 160 256 -462 0
463 -162 0
463 161 0
463 160 0
463 -269 0
162 -161 -160 269 -463 0
464 -162 0
464 161 0
464 -160 0
464 -166 0
162 -161 160 166 -464 0
465 -162 0
465 -161 0
465 160 0
465 -191 0
162 161 -160 191 -465 0
466 -162 0
466 -161 0
466 -160 0
466 -204 0
162 161 160 204 -466 0
-466 -465 -464 -463 -462 -461 -460 -459 467 0
-467 466 0
-467 465 0
-467 464 0
-467 463 0
-467 462 0
-467 461 0
-467 460 0
-467 459 0
468 162 0
468 161 0
468 160 0
468 -230 0
-162 -161 -160 230 -468 0
469 162 0
469 161 0
469 -160 0
469 -243 0
-162 -161 160 243 -469 0
470 162 0
470 -161 0
470 160 0
470 -256 0
-162 161 -160 256 -470 0
471 162 0
471 -161 0
471 -160 0
471 -269 0
-162 161 160 269 -471 0
472 -162 0
472 161 0
472 160 0
472 -166 0
162 -161 -160 166 -472 0
473 -162 0
473 161 0
473 -160 0
473 -191 0
162 -161 160 191 -473 0
474 -162 0
474 -161 0
474 160 0
474 -204 0
162 161 -160 204 -474 0
475 -162 0
475 -161 0
475 -160 0
475 -217 0
162 161 160 217 -475 0
-475 -474 -473 -472 -471 -470 -469 -468 476 0
-476 475 0
-476 474 0
-476 473 0
-476 472 0
-476 471 0
-476 470 0
-476 469 0
-476 468 0
477 162 0
477 161 0
477 160 0
477 -243 0
-162 -161 -160 243 -477 0
478 162 0
478 161 0
478 -160 0
478 -256 0
-162 -161 160 256 -478 0
479 162 0
479 -161 0
479 160 0
479 -269 0
-162 161 -160 269 -479 0
480 162 0
480 -161 0
480 -160 0
480 -166 0
-162 161 160 166 -480 0
481 -162 0
481 161 0
481 160 0
481 -191 0
162 -161 -160 191 -481 0
482 -162 0
482 161 0
482 -160 0
482 -204 0
162 -161 160 204 -482 0
483 -162 0
483 -161 0
483 160 0
483 -217 0
162 161 -160 217 -483 0
484 -162 0
484 -161 0
484 -160 0
484 -230 0
162 161 160 230 -484 0
-484 -483 -482 -481 -480 -479 -478 -477 485 0
-485 484 0
-485 483 0
-485 482 0
-485 481 0
-485 480 0
-485 479 0
-485 478 0
-485 477 0
486 162 0
486 161 0
486 160 0
486 -256 0
-162 -161 -160 256 -486 0
487 162 0
487 161 0
487 -160 0
487 -269 0
-162 -161 160 269 -487 0
488 162 0
488 -161 0
488 160 0
488 -166 0
-162 161 -160 166 -488 0
489 162 0
489 -161 0
489 -160 0
489 -191 0
-162 161 160 191 -489 0
490 -162 0
490 161 0
490 160 0
490 -204 0
162 -161 -160 204 -490 0
491 -162 0
491 161 0
491 -160 0
491 -217 0
162 -161 160 217 -491 0
492 -162 0
492 -161 0
492 160 0
492 -230 0
162 161 -160 230 -492 0
493 -162 0
493 -161 0
493 -160 0
493 -243 0
162 161 160 243 -493 0
-493 -492 -491 -490 -489 -488 -487 -486 494 0
-494 493 0
-494 492 0
-494 491 0
-494 490 0
-494 489 0
-494 488 0
-494 487 0
-494 486 0
495 162 0
495 161 0
495 160 0
495 -269 0
-162 -161 -160 269 -495 0
496 162 0
496 161 0
496 -160 0
496 -166 0
-162 -161 160 166 -496 0
497 162 0
497 -161 0
497 160 0
497 -191 0
-162 161 -160 191 -497 0
498 162 0
498 -161 0
498 -160 0
498 -204 0
-162 161 160 204 -498 0
499 -162 0
499 161 0
499 160 0
499 -217 0
162 -161 -160 217 -499 0
500 -162 0
500 161 0
500 -160 0
500 -230 0
162 -161 160 230 -500 0
501 -162 0
501 -161 0
501 160 0
501 -243 0
162 161 -160 243 -501 0
502 -162 0
502 -161 0
502 -160 0
502 -256 0
162 161 160 256 -502 0
-502 -501 -500 -499 -498 -497 -496 -495 503 0
-503 502 0
-503 501 0
-503 500 0
-503 499 0
-503 498 0
-503 497 0
-503 496 0
-503 495 0
305 162 0
305 161 0
305 160 0
-162 -161 -160 -305 0
504 162 0
504 161 0
504 160 0
504 -166 0
-162 -161 -160 166 -504 0
505 162 0
505 161 0
505 -160 0
505 -191 0
-162 -161 160 191 -505 0
506 162 0
506 -161 0
506 160 0
506 -204 0
-162 161 -160 204 -506 0
507 162 0
507 -161 0
507 -160 0
507 -217 0
-162 161 160 217 -507 0
302 161 0
302 160 0
-161 -160 -302 0
508 -162 0
508 161 0
508 160 0
508 -230 0
162 -161 -160 230 -508 0
509 -162 0
509 161 0
509 -160 0
509 -243 0
162 -161 160 243 -509 0
510 -162 0
510 -161 0
510 160 0
510 -256 0
162 161 -160 256 -510 0
403 -162 0
403 -161 0
403 -160 0
162 161 160 -403 0
511 -162 0
511 -161 0
511 -160 0
511 -269 0
162 161 160 269 -511 0
-511 -510 -509 -508 -507 -506 -505 -504 512 0
-512 511 0
-512 510 0
-512 509 0
-512 508 0
-512 507 0
-512 506 0
-512 505 0
-512 504 0
-373 512 0
373 -512 0
-368 503 0
368 -503 0
-361 494 0
361 -494 0
-355 485 0
355 -485 0
-349 476 0
349 -476 0
-343 467 0
343 -467 0
-337 458 0
337 -458 0
-332 449 0
332 -449 0
-183 184 0
183 -184 0
-365 167 0
365 -167 0
-365 432 0
-167 308 0
-170 428 0
170 -428 0
-169 421 0
169 -421 0
-168 419 0
168 -419 0
-365 418 0
411 417 0
410 416 0
409 415 0
408 414 0
407 413 0
406 412 0
365 -329 -328 327 -332 0
-2 405 0
2 -405 0
-3 395 0
3 -395 0
-4 392 0
4 -392 0
-5 387 0
5 -387 0
-26 376 0
26 -376 0
-24 371 0
24 -371 0
-23 364 0
23 -364 0
-22 358 0
22 -358 0
-21 352 0
21 -352 0
-20 346 0
20 -346 0
-19 340 0
19 -340 0
-6 334 0
6 -334 0
-52 326 0
52 -326 0
-29 324 0
29 -324 0
-30 315 0
30 -315 0
-31 309 0
31 -309 0
-33 298 0
33 -298 0
-34 293 0
34 -293 0
-35 287 0
35 -287 0
-82 278 0
82 -278 0
-80 265 0
80 -265 0
-78 252 0
78 -252 0
-76 239 0
76 -239 0
-74 226 0
74 -226 0
-72 213 0
72 -213 0
-70 200 0
70 -200 0
-84 187 0
84 -187 0
158 148 0
